c File:  hamming8-4.clq
c
c Source: Panos Pardalos pardalos@math.ufl.edu
c
c Reference: hamminga-b is a Hamming graph on a-bit words with
c            an edge if and only if the two words are at least
c            hamming distance b apart
c
p edge 256 20864